*SENSE:Maximize
NAME          MODEL
ROWS
 N  OBJ
 L  C0000000
 G  C0000001
 L  C0000002
 L  C0000003
 L  C0000004
 L  C0000005
 L  C0000006
 L  C0000007
 L  C0000008
 L  C0000009
COLUMNS
    X0000000  C0000009   1.000000000000e+00
    X0000000  C0000008   1.000000000000e+00
    X0000000  C0000001   8.255940000000e+05
    X0000000  C0000000   3.827450000000e+05
    X0000000  C0000003   1.000000000000e+00
    X0000000  C0000002   8.255940000000e+05
    X0000000  C0000005   2.000000000000e+00
    X0000000  C0000004   1.000000000000e+00
    X0000000  C0000007   1.000000000000e+00
    X0000000  C0000006   1.000000000000e+00
    X0000000  OBJ        1.000000000000e+00
    X0000001  C0000009   1.000000000000e+00
    X0000001  C0000008   1.000000000000e+00
    X0000001  C0000001   1.677009000000e+06
    X0000001  C0000000   7.996010000000e+05
    X0000001  C0000003   1.000000000000e+00
    X0000001  C0000002   1.677009000000e+06
    X0000001  C0000005   1.000000000000e+00
    X0000001  C0000004   1.000000000000e+00
    X0000001  C0000007   1.000000000000e+00
    X0000001  C0000006   2.000000000000e+00
    X0000001  OBJ        1.000000000000e+00
    X0000002  C0000009   1.000000000000e+00
    X0000002  C0000008   1.000000000000e+00
    X0000002  C0000001   1.844992000000e+06
    X0000002  C0000000   8.536650000000e+05
    X0000002  C0000003   1.000000000000e+00
    X0000002  C0000002   1.844992000000e+06
    X0000002  C0000005   1.000000000000e+00
    X0000002  C0000004   1.000000000000e+00
    X0000002  C0000007   1.000000000000e+00
    X0000002  C0000006   1.000000000000e+00
    X0000002  OBJ        1.000000000000e+00
    X0000003  C0000009   1.000000000000e+00
    X0000003  C0000008   1.000000000000e+00
    X0000003  C0000001   1.049289000000e+06
    X0000003  C0000000   5.518300000000e+05
    X0000003  C0000003   1.000000000000e+00
    X0000003  C0000002   1.049289000000e+06
    X0000003  C0000005   1.000000000000e+00
    X0000003  C0000004   1.000000000000e+00
    X0000003  C0000007   1.000000000000e+00
    X0000003  C0000006   1.000000000000e+00
    X0000003  OBJ        1.000000000000e+00
    X0000004  C0000009   1.000000000000e+00
    X0000004  C0000008   1.000000000000e+00
    X0000004  C0000001   1.252836000000e+06
    X0000004  C0000000   6.108560000000e+05
    X0000004  C0000003   1.000000000000e+00
    X0000004  C0000002   1.252836000000e+06
    X0000004  C0000005   1.000000000000e+00
    X0000004  C0000004   1.000000000000e+00
    X0000004  C0000007   1.000000000000e+00
    X0000004  C0000006   1.000000000000e+00
    X0000004  OBJ        1.000000000000e+00
    X0000005  C0000009   1.000000000000e+00
    X0000005  C0000008   1.000000000000e+00
    X0000005  C0000001   1.319836000000e+06
    X0000005  C0000000   6.707020000000e+05
    X0000005  C0000003   1.000000000000e+00
    X0000005  C0000002   1.319836000000e+06
    X0000005  C0000005   1.000000000000e+00
    X0000005  C0000004   1.000000000000e+00
    X0000005  C0000007   1.000000000000e+00
    X0000005  C0000006   1.000000000000e+00
    X0000005  OBJ        1.000000000000e+00
    X0000006  C0000009   1.000000000000e+00
    X0000006  C0000008   1.000000000000e+00
    X0000006  C0000001   9.532770000000e+05
    X0000006  C0000000   4.889600000000e+05
    X0000006  C0000003   1.000000000000e+00
    X0000006  C0000002   9.532770000000e+05
    X0000006  C0000005   1.000000000000e+00
    X0000006  C0000004   1.000000000000e+00
    X0000006  C0000007   1.000000000000e+00
    X0000006  C0000006   1.000000000000e+00
    X0000006  OBJ        1.000000000000e+00
    X0000007  C0000009   1.000000000000e+00
    X0000007  C0000008   1.000000000000e+00
    X0000007  C0000001   2.067538000000e+06
    X0000007  C0000000   9.511110000000e+05
    X0000007  C0000003   1.000000000000e+00
    X0000007  C0000002   2.067538000000e+06
    X0000007  C0000005   1.000000000000e+00
    X0000007  C0000004   1.000000000000e+00
    X0000007  C0000007   1.000000000000e+00
    X0000007  C0000006   1.000000000000e+00
    X0000007  OBJ        1.000000000000e+00
    X0000008  C0000009   1.000000000000e+00
    X0000008  C0000008   1.000000000000e+00
    X0000008  C0000001   6.753670000000e+05
    X0000008  C0000000   3.230460000000e+05
    X0000008  C0000003   1.000000000000e+00
    X0000008  C0000002   6.753670000000e+05
    X0000008  C0000005   1.000000000000e+00
    X0000008  C0000004   1.000000000000e+00
    X0000008  C0000007   1.000000000000e+00
    X0000008  C0000006   1.000000000000e+00
    X0000008  OBJ        1.000000000000e+00
    X0000009  C0000009   1.000000000000e+00
    X0000009  C0000008   1.000000000000e+00
    X0000009  C0000001   8.536550000000e+05
    X0000009  C0000000   4.462980000000e+05
    X0000009  C0000003   1.000000000000e+00
    X0000009  C0000002   8.536550000000e+05
    X0000009  C0000005   1.000000000000e+00
    X0000009  C0000004   1.000000000000e+00
    X0000009  C0000007   1.000000000000e+00
    X0000009  C0000006   1.000000000000e+00
    X0000009  OBJ        1.000000000000e+00
    X0000010  C0000009   1.000000000000e+00
    X0000010  C0000008   1.000000000000e+00
    X0000010  C0000001   1.826027000000e+06
    X0000010  C0000000   9.311610000000e+05
    X0000010  C0000003   1.000000000000e+00
    X0000010  C0000002   1.826027000000e+06
    X0000010  C0000005   1.000000000000e+00
    X0000010  C0000004   1.000000000000e+00
    X0000010  C0000007   1.000000000000e+00
    X0000010  C0000006   1.000000000000e+00
    X0000010  OBJ        1.000000000000e+00
    X0000011  C0000009   1.000000000000e+00
    X0000011  C0000008   1.000000000000e+00
    X0000011  C0000001   6.573100000000e+04
    X0000011  C0000000   3.138500000000e+04
    X0000011  C0000003   1.000000000000e+00
    X0000011  C0000002   6.573100000000e+04
    X0000011  C0000005   1.000000000000e+00
    X0000011  C0000004   1.000000000000e+00
    X0000011  C0000007   1.000000000000e+00
    X0000011  C0000006   1.000000000000e+00
    X0000011  OBJ        1.000000000000e+00
    X0000012  C0000009   1.000000000000e+00
    X0000012  C0000008   1.000000000000e+00
    X0000012  C0000001   1.676628000000e+06
    X0000012  C0000000   9.092470000000e+05
    X0000012  C0000003   1.000000000000e+00
    X0000012  C0000002   1.676628000000e+06
    X0000012  C0000005   1.000000000000e+00
    X0000012  C0000004   1.000000000000e+00
    X0000012  C0000007   2.000000000000e+00
    X0000012  C0000006   1.000000000000e+00
    X0000012  OBJ        1.000000000000e+00
    X0000013  C0000009   1.000000000000e+00
    X0000013  C0000008   1.000000000000e+00
    X0000013  C0000001   9.014890000000e+05
    X0000013  C0000000   4.969510000000e+05
    X0000013  C0000003   1.000000000000e+00
    X0000013  C0000002   9.014890000000e+05
    X0000013  C0000005   1.000000000000e+00
    X0000013  C0000004   1.000000000000e+00
    X0000013  C0000007   1.000000000000e+00
    X0000013  C0000006   1.000000000000e+00
    X0000013  OBJ        1.000000000000e+00
    X0000014  C0000009   1.000000000000e+00
    X0000014  C0000008   1.000000000000e+00
    X0000014  C0000001   5.772430000000e+05
    X0000014  C0000000   2.647240000000e+05
    X0000014  C0000003   1.000000000000e+00
    X0000014  C0000002   5.772430000000e+05
    X0000014  C0000005   1.000000000000e+00
    X0000014  C0000004   1.000000000000e+00
    X0000014  C0000007   1.000000000000e+00
    X0000014  C0000006   1.000000000000e+00
    X0000014  OBJ        1.000000000000e+00
    X0000015  C0000009   1.000000000000e+00
    X0000015  C0000008   1.000000000000e+00
    X0000015  C0000001   4.662570000000e+05
    X0000015  C0000000   2.249160000000e+05
    X0000015  C0000003   1.000000000000e+00
    X0000015  C0000002   4.662570000000e+05
    X0000015  C0000005   1.000000000000e+00
    X0000015  C0000004   1.000000000000e+00
    X0000015  C0000007   1.000000000000e+00
    X0000015  C0000006   1.000000000000e+00
    X0000015  OBJ        1.000000000000e+00
    X0000016  C0000009   1.000000000000e+00
    X0000016  C0000008   1.000000000000e+00
    X0000016  C0000001   3.692610000000e+05
    X0000016  C0000000   1.696840000000e+05
    X0000016  C0000003   1.000000000000e+00
    X0000016  C0000002   3.692610000000e+05
    X0000016  C0000005   1.000000000000e+00
    X0000016  C0000004   1.000000000000e+00
    X0000016  C0000007   1.000000000000e+00
    X0000016  C0000006   1.000000000000e+00
    X0000016  OBJ        1.000000000000e+00
    X0000017  C0000009   1.000000000000e+00
    X0000017  C0000008   2.000000000000e+00
    X0000017  C0000001   1.523970000000e+06
    X0000017  C0000000   7.290690000000e+05
    X0000017  C0000003   1.000000000000e+00
    X0000017  C0000002   1.523970000000e+06
    X0000017  C0000005   1.000000000000e+00
    X0000017  C0000004   1.000000000000e+00
    X0000017  C0000007   1.000000000000e+00
    X0000017  C0000006   1.000000000000e+00
    X0000017  OBJ        1.000000000000e+00
    X0000018  C0000009   2.000000000000e+00
    X0000018  C0000008   1.000000000000e+00
    X0000018  C0000001   9.439720000000e+05
    X0000018  C0000000   4.679020000000e+05
    X0000018  C0000003   1.000000000000e+00
    X0000018  C0000002   9.439720000000e+05
    X0000018  C0000005   1.000000000000e+00
    X0000018  C0000004   1.000000000000e+00
    X0000018  C0000007   1.000000000000e+00
    X0000018  C0000006   1.000000000000e+00
    X0000018  OBJ        1.000000000000e+00
    X0000019  C0000009   1.000000000000e+00
    X0000019  C0000008   1.000000000000e+00
    X0000019  C0000001   9.742600000000e+04
    X0000019  C0000000   4.432800000000e+04
    X0000019  C0000003   1.000000000000e+00
    X0000019  C0000002   9.742600000000e+04
    X0000019  C0000005   1.000000000000e+00
    X0000019  C0000004   1.000000000000e+00
    X0000019  C0000007   1.000000000000e+00
    X0000019  C0000006   1.000000000000e+00
    X0000019  OBJ        2.000000000000e+00
    X0000020  C0000009   1.000000000000e+00
    X0000020  C0000008   1.000000000000e+00
    X0000020  C0000001   6.966600000000e+04
    X0000020  C0000000   3.461000000000e+04
    X0000020  C0000003   1.000000000000e+00
    X0000020  C0000002   6.966600000000e+04
    X0000020  C0000005   1.000000000000e+00
    X0000020  C0000004   1.000000000000e+00
    X0000020  C0000007   1.000000000000e+00
    X0000020  C0000006   1.000000000000e+00
    X0000020  OBJ        1.000000000000e+00
    X0000021  C0000009   1.000000000000e+00
    X0000021  C0000008   1.000000000000e+00
    X0000021  C0000001   1.296457000000e+06
    X0000021  C0000000   6.981500000000e+05
    X0000021  C0000003   1.000000000000e+00
    X0000021  C0000002   1.296457000000e+06
    X0000021  C0000005   1.000000000000e+00
    X0000021  C0000004   1.000000000000e+00
    X0000021  C0000007   1.000000000000e+00
    X0000021  C0000006   1.000000000000e+00
    X0000021  OBJ        1.000000000000e+00
    X0000022  C0000009   1.000000000000e+00
    X0000022  C0000008   1.000000000000e+00
    X0000022  C0000001   1.679693000000e+06
    X0000022  C0000000   8.234600000000e+05
    X0000022  C0000003   1.000000000000e+00
    X0000022  C0000002   1.679693000000e+06
    X0000022  C0000005   1.000000000000e+00
    X0000022  C0000004   1.000000000000e+00
    X0000022  C0000007   1.000000000000e+00
    X0000022  C0000006   1.000000000000e+00
    X0000022  OBJ        1.000000000000e+00
    X0000023  C0000009   1.000000000000e+00
    X0000023  C0000008   1.000000000000e+00
    X0000023  C0000001   1.902996000000e+06
    X0000023  C0000000   9.039590000000e+05
    X0000023  C0000003   1.000000000000e+00
    X0000023  C0000002   1.902996000000e+06
    X0000023  C0000005   1.000000000000e+00
    X0000023  C0000004   1.000000000000e+00
    X0000023  C0000007   1.000000000000e+00
    X0000023  C0000006   1.000000000000e+00
    X0000023  OBJ        1.000000000000e+00
RHS
    RHS       C0000000   6.404180000000e+06
    RHS       C0000001   1.273217199435e+07
    RHS       C0000002   1.358098252730e+07
    RHS       C0000003   1.600000000000e+01
    RHS       C0000004   1.500000000000e+01
    RHS       C0000005   1.500000000000e+01
    RHS       C0000006   1.500000000000e+01
    RHS       C0000007   1.500000000000e+01
    RHS       C0000008   1.500000000000e+01
    RHS       C0000009   1.500000000000e+01
BOUNDS
 UP BND       X0000000   1.000000000000e+00
 UP BND       X0000001   1.000000000000e+00
 UP BND       X0000002   1.000000000000e+00
 UP BND       X0000003   1.000000000000e+00
 UP BND       X0000004   1.000000000000e+00
 UP BND       X0000005   1.000000000000e+00
 UP BND       X0000006   1.000000000000e+00
 UP BND       X0000007   1.000000000000e+00
 UP BND       X0000008   1.000000000000e+00
 UP BND       X0000009   1.000000000000e+00
 UP BND       X0000010   1.000000000000e+00
 UP BND       X0000011   1.000000000000e+00
 UP BND       X0000012   1.000000000000e+00
 UP BND       X0000013   1.000000000000e+00
 UP BND       X0000014   1.000000000000e+00
 UP BND       X0000015   1.000000000000e+00
 UP BND       X0000016   1.000000000000e+00
 UP BND       X0000017   1.000000000000e+00
 UP BND       X0000018   1.000000000000e+00
 UP BND       X0000019   1.000000000000e+00
 UP BND       X0000020   1.000000000000e+00
 UP BND       X0000021   1.000000000000e+00
 UP BND       X0000022   1.000000000000e+00
 UP BND       X0000023   1.000000000000e+00
ENDATA
